Al La O
1.0
7.622532 0.000000 0.000000
0.000000 19.433720 0.000000
0.000000 0.000000 24.949015
Al La O
32 44 114
Selective dynamics
direct
0.250000 0.076923 0.514979 F F F Al
0.750000 0.076923 0.514979 F F F Al
0.250000 0.269231 0.544938 F F F Al
0.750000 0.269231 0.544938 F F F Al
0.250000 0.461538 0.574897 F F F Al
0.750000 0.461538 0.574897 F F F Al
0.250000 0.653846 0.604857 F F F Al
0.750000 0.653846 0.604857 F F F Al
0.250000 0.846154 0.634816 F F F Al
0.750000 0.846154 0.634816 F F F Al
0.250000 0.038462 0.664775 F F F Al
0.750000 0.038462 0.664775 F F F Al
0.250176 0.229480 0.695711 T T T Al
0.749824 0.229480 0.695711 T T T Al
0.249877 0.426428 0.727758 T T T Al
0.750123 0.426428 0.727758 T T T Al
0.250000 0.884615 0.485021 F F F Al
0.750000 0.884615 0.485021 F F F Al
0.250000 0.692307 0.455062 F F F Al
0.750000 0.692307 0.455062 F F F Al
0.250000 0.500000 0.425103 F F F Al
0.750000 0.500000 0.425103 F F F Al
0.250000 0.307692 0.395143 F F F Al
0.750000 0.307692 0.395143 F F F Al
0.250000 0.115384 0.365184 F F F Al
0.750000 0.115384 0.365184 F F F Al
0.250000 0.923076 0.335225 F F F Al
0.750000 0.923076 0.335225 F F F Al
0.250176 0.732058 0.304289 T T T Al
0.749824 0.732058 0.304289 T T T Al
0.249877 0.535110 0.272242 T T T Al
0.750123 0.535110 0.272242 T T T Al
0.000000 0.576923 0.514979 F F F La
0.500000 0.576923 0.514979 F F F La
0.000000 0.769231 0.544938 F F F La
0.500000 0.769231 0.544938 F F F La
0.000000 0.961538 0.574897 F F F La
0.500000 0.961538 0.574897 F F F La
0.000000 0.153846 0.604857 F F F La
0.500000 0.153846 0.604857 F F F La
0.000000 0.346154 0.634816 F F F La
0.500000 0.346154 0.634816 F F F La
0.000000 0.538462 0.664775 F F F La
0.500000 0.538462 0.664775 F F F La
-0.000000 0.722036 0.697106 T T T La
0.500000 0.728607 0.690342 T T T La
-0.000000 0.921393 0.717809 T T T La
0.500000 0.923121 0.718380 T T T La
-0.000000 0.119961 0.749447 T T T La
0.500000 0.120281 0.749586 T T T La
-0.000000 0.322070 0.781314 T T T La
0.500000 0.323709 0.782337 T T T La
0.272126 0.606944 0.797318 T T T La
0.727874 0.606944 0.797318 T T T La
0.000000 0.384615 0.485021 F F F La
0.500000 0.384615 0.485021 F F F La
0.000000 0.192307 0.455062 F F F La
0.500000 0.192307 0.455062 F F F La
0.000000 1.000000 0.425103 F F F La
0.500000 1.000000 0.425103 F F F La
0.000000 0.807692 0.395143 F F F La
0.500000 0.807692 0.395143 F F F La
0.000000 0.615384 0.365184 F F F La
0.500000 0.615384 0.365184 F F F La
0.000000 0.423076 0.335225 F F F La
0.500000 0.423076 0.335225 F F F La
-0.000000 0.239502 0.302894 T T T La
0.500000 0.232931 0.309658 T T T La
-0.000000 0.040145 0.282191 T T T La
0.500000 0.038417 0.281620 T T T La
-0.000000 0.841577 0.250553 T T T La
0.500000 0.841257 0.250414 T T T La
-0.000000 0.639468 0.218686 T T T La
0.500000 0.637829 0.217663 T T T La
0.272126 0.354594 0.202682 T T T La
0.727874 0.354594 0.202682 T T T La
0.250000 0.980769 0.500000 F F F O
0.750000 0.980769 0.500000 F F F O
0.000000 0.076923 0.514979 F F F O
0.500000 0.076923 0.514979 F F F O
0.250000 0.173077 0.529959 F F F O
0.750000 0.173077 0.529959 F F F O
0.250000 0.673077 0.529959 F F F O
0.750000 0.673077 0.529959 F F F O
0.000000 0.269231 0.544938 F F F O
0.500000 0.269231 0.544938 F F F O
0.250000 0.365385 0.559918 F F F O
0.750000 0.365385 0.559918 F F F O
0.250000 0.865385 0.559918 F F F O
0.750000 0.865385 0.559918 F F F O
0.000000 0.461538 0.574897 F F F O
0.500000 0.461538 0.574897 F F F O
0.250000 0.057692 0.589877 F F F O
0.750000 0.057692 0.589877 F F F O
0.250000 0.557692 0.589877 F F F O
0.750000 0.557692 0.589877 F F F O
0.000000 0.653846 0.604857 F F F O
0.500000 0.653846 0.604857 F F F O
0.250000 0.250000 0.619836 F F F O
0.750000 0.250000 0.619836 F F F O
0.250000 0.750000 0.619836 F F F O
0.750000 0.750000 0.619836 F F F O
0.000000 0.846154 0.634816 F F F O
0.500000 0.846154 0.634816 F F F O
0.250000 0.442308 0.649795 F F F O
0.750000 0.442308 0.649795 F F F O
0.250000 0.942308 0.649795 F F F O
0.750000 0.942308 0.649795 F F F O
0.000000 0.038462 0.664775 F F F O
0.500000 0.038462 0.664775 F F F O
0.249894 0.132928 0.677948 T T T O
0.750106 0.132928 0.677948 T T T O
0.246917 0.641950 0.681504 T T T O
0.753083 0.641950 0.681504 T T T O
-0.000000 0.224823 0.695655 T T T O
0.500000 0.224702 0.695641 T T T O
0.249839 0.322354 0.708053 T T T O
0.750161 0.322354 0.708053 T T T O
0.250513 0.836678 0.714052 T T T O
0.749487 0.836678 0.714052 T T T O
-0.000000 0.417371 0.721443 T T T O
0.500000 0.416932 0.721558 T T T O
0.251163 0.015742 0.742364 T T T O
0.748837 0.015742 0.742364 T T T O
0.250661 0.519943 0.735087 T T T O
0.749339 0.519943 0.735087 T T T O
0.249544 0.194739 0.772089 T T T O
0.750456 0.194739 0.772089 T T T O
0.248505 0.384229 0.798883 T T T O
0.751495 0.384229 0.798883 T T T O
-0.000000 0.670615 0.779214 T T T O
0.500000 0.676704 0.768593 T T T O
0.500000 0.578066 0.845722 T T T O
0.250000 0.480769 0.500000 F F F O
0.750000 0.480769 0.500000 F F F O
0.000000 0.884615 0.485021 F F F O
0.500000 0.884615 0.485021 F F F O
0.250000 0.788461 0.470041 F F F O
0.750000 0.788461 0.470041 F F F O
0.250000 0.288461 0.470041 F F F O
0.750000 0.288461 0.470041 F F F O
0.000000 0.692307 0.455062 F F F O
0.500000 0.692307 0.455062 F F F O
0.250000 0.596153 0.440082 F F F O
0.750000 0.596153 0.440082 F F F O
0.250000 0.096153 0.440082 F F F O
0.750000 0.096153 0.440082 F F F O
0.000000 0.500000 0.425103 F F F O
0.500000 0.500000 0.425103 F F F O
0.250000 0.903846 0.410123 F F F O
0.750000 0.903846 0.410123 F F F O
0.250000 0.403846 0.410123 F F F O
0.750000 0.403846 0.410123 F F F O
0.000000 0.307692 0.395143 F F F O
0.500000 0.307692 0.395143 F F F O
0.250000 0.711538 0.380164 F F F O
0.750000 0.711538 0.380164 F F F O
0.250000 0.211538 0.380164 F F F O
0.750000 0.211538 0.380164 F F F O
0.000000 0.115384 0.365184 F F F O
0.500000 0.115384 0.365184 F F F O
0.250000 0.519230 0.350205 F F F O
0.750000 0.519230 0.350205 F F F O
0.250000 0.019230 0.350205 F F F O
0.750000 0.019230 0.350205 F F F O
0.000000 0.923076 0.335225 F F F O
0.500000 0.923076 0.335225 F F F O
0.249894 0.828610 0.322052 T T T O
0.750106 0.828610 0.322052 T T T O
0.246917 0.319588 0.318496 T T T O
0.753083 0.319588 0.318496 T T T O
-0.000000 0.736715 0.304345 T T T O
0.500000 0.736836 0.304359 T T T O
0.249839 0.639184 0.291947 T T T O
0.750161 0.639184 0.291947 T T T O
0.250513 0.124860 0.285948 T T T O
0.749487 0.124860 0.285948 T T T O
-0.000000 0.544167 0.278557 T T T O
0.500000 0.544606 0.278442 T T T O
0.251163 0.945796 0.257636 T T T O
0.748837 0.945796 0.257636 T T T O
0.250661 0.441595 0.264913 T T T O
0.749339 0.441595 0.264913 T T T O
0.249544 0.766799 0.227911 T T T O
0.750456 0.766799 0.227911 T T T O
0.248505 0.577309 0.201117 T T T O
0.751495 0.577309 0.201117 T T T O
-0.000000 0.290923 0.220786 T T T O
0.500000 0.284834 0.231407 T T T O
0.500000 0.383472 0.154278 T T T O

0.011229 0.001861 -0.005669
-0.005027 -0.000611 -0.001894
-0.000501 0.004777 0.004015
0.000778 -0.001548 -0.004286
0.010303 -0.004541 -0.002717
0.001395 0.000704 -0.000433
-0.000459 0.000806 -0.000500
-0.000148 -0.000954 0.000367
0.002144 -0.000357 0.000186
0.001777 -0.001480 -0.002526
-0.003276 -0.007464 0.001321
-0.006584 -0.003746 -0.001271
-0.001647 -0.001176 0.001221
0.001022 -0.006197 0.000168
-0.003020 0.005358 0.000074
0.003409 -0.003835 0.001592
0.000171 -0.002403 0.005681
-0.000287 0.000731 0.001750
0.002388 0.001018 -0.002705
-0.001064 -0.002124 0.003266
0.010303 -0.004541 -0.002717
-0.006145 0.000115 0.000343
-0.001647 -0.001176 0.001221
0.001627 0.000357 -0.002314
0.000370 -0.002176 -0.001135
-0.001545 -0.001003 -0.000895
0.009634 0.007009 -0.005612
-0.001647 -0.001176 0.001221
0.001022 -0.006197 0.000168
-0.001064 -0.002124 0.003266
-0.001199 -0.001137 -0.000139
-0.002051 -0.002596 -0.002870
0.010303 -0.004541 -0.002717
-0.009510 0.004289 0.009276
0.005133 0.000366 0.003737
-0.000148 -0.000954 0.000367
0.000171 -0.002403 0.005681
-0.000459 0.000806 -0.000500
-0.003020 0.005358 0.000074
0.000023 -0.004051 0.000571
0.001022 -0.006197 0.000168
0.000754 0.001756 0.000208
0.000754 0.001756 0.000208
-0.001054 -0.000108 0.005719
0.006288 0.001383 0.001544
-0.005027 -0.000611 -0.001894
0.001022 -0.006197 0.000168
-0.004315 -0.004211 0.000539
0.002388 0.001018 -0.002705
0.000754 0.001756 0.000208
0.001395 0.000704 -0.000433
-0.000287 0.000731 0.001750
0.001022 -0.006197 0.000168
-0.000459 0.000806 -0.000500
-0.000287 0.000731 0.001750
-0.001157 0.001260 -0.000030
-0.003020 0.005358 0.000074
0.002388 0.001018 -0.002705
-0.000148 -0.000954 0.000367
-0.000287 0.000731 0.001750
-0.003276 -0.007464 0.001321
-0.000494 -0.000881 0.001027
-0.002051 -0.002596 -0.002870
0.000413 0.000599 0.001804
-0.006584 -0.003746 -0.001271
-0.001545 -0.001003 -0.000895
0.000370 -0.002176 -0.001135
0.000100 0.000150 -0.002728
-0.006145 0.000115 0.000343
0.000778 -0.001548 -0.004286
0.011229 0.001861 -0.005669
-0.000459 0.000806 -0.000500
-0.006145 0.000115 0.000343
-0.004761 0.001427 -0.007704
-0.001199 -0.001137 -0.000139
0.006977 0.000893 0.000448
0.000312 0.000932 0.001637
0.004040 0.008482 -0.000888
-0.003020 0.005358 0.000074
0.000370 -0.002176 -0.001135
-0.000134 -0.001557 -0.000119
0.000100 0.000150 -0.002728
0.001136 0.006075 -0.002421
-0.004761 0.001427 -0.007704
0.000023 -0.004051 0.000571
0.000370 -0.002176 -0.001135
-0.001446 0.001947 -0.003947
0.000413 0.000599 0.001804
-0.000134 -0.001557 -0.000119
0.000778 -0.001548 -0.004286
0.002388 0.001018 -0.002705
0.000778 -0.001548 -0.004286
-0.001446 0.001947 -0.003947
-0.003020 0.005358 0.000074
0.001022 -0.006197 0.000168
0.001022 -0.006197 0.000168
-0.003020 0.005358 0.000074
-0.001446 0.001947 -0.003947
0.000778 -0.001548 -0.004286
0.002388 0.001018 -0.002705
0.000778 -0.001548 -0.004286
-0.000134 -0.001557 -0.000119
0.000413 0.000599 0.001804
-0.001446 0.001947 -0.003947
0.000370 -0.002176 -0.001135
0.000023 -0.004051 0.000571
-0.004761 0.001427 -0.007704
0.001136 0.006075 -0.002421
0.000100 0.000150 -0.002728
-0.000134 -0.001557 -0.000119
0.000370 -0.002176 -0.001135
-0.003020 0.005358 0.000074
0.004040 0.008482 -0.000888
0.000312 0.000932 0.001637
0.006977 0.000893 0.000448
-0.001199 -0.001137 -0.000139
-0.004761 0.001427 -0.007704
-0.006145 0.000115 0.000343
-0.000459 0.000806 -0.000500
0.011229 0.001861 -0.005669
0.000778 -0.001548 -0.004286
-0.006145 0.000115 0.000343
0.000100 0.000150 -0.002728
0.000370 -0.002176 -0.001135
-0.001545 -0.001003 -0.000895
-0.006584 -0.003746 -0.001271
0.000413 0.000599 0.001804
-0.002051 -0.002596 -0.002870
-0.000494 -0.000881 0.001027
-0.003276 -0.007464 0.001321
-0.000287 0.000731 0.001750
-0.000148 -0.000954 0.000367
0.002388 0.001018 -0.002705
-0.003020 0.005358 0.000074
-0.001157 0.001260 -0.000030
-0.000287 0.000731 0.001750
-0.000459 0.000806 -0.000500
0.001022 -0.006197 0.000168
-0.000287 0.000731 0.001750
0.001395 0.000704 -0.000433
0.000754 0.001756 0.000208
0.002388 0.001018 -0.002705
-0.004315 -0.004211 0.000539
0.001022 -0.006197 0.000168
-0.005027 -0.000611 -0.001894
0.006288 0.001383 0.001544
-0.001054 -0.000108 0.005719
0.000754 0.001756 0.000208
0.000754 0.001756 0.000208
0.001022 -0.006197 0.000168
0.000023 -0.004051 0.000571
-0.003020 0.005358 0.000074
-0.000459 0.000806 -0.000500
0.000171 -0.002403 0.005681
-0.000148 -0.000954 0.000367
0.005133 0.000366 0.003737
-0.009510 0.004289 0.009276
0.010303 -0.004541 -0.002717
-0.002051 -0.002596 -0.002870
-0.001199 -0.001137 -0.000139
-0.001064 -0.002124 0.003266
0.001022 -0.006197 0.000168
-0.001647 -0.001176 0.001221
0.009634 0.007009 -0.005612
-0.001545 -0.001003 -0.000895
0.000370 -0.002176 -0.001135
0.001627 0.000357 -0.002314
-0.001647 -0.001176 0.001221
-0.006145 0.000115 0.000343
0.010303 -0.004541 -0.002717
-0.001064 -0.002124 0.003266
0.002388 0.001018 -0.002705
-0.000287 0.000731 0.001750
0.000171 -0.002403 0.005681
0.003409 -0.003835 0.001592
-0.003020 0.005358 0.000074
0.001022 -0.006197 0.000168
-0.001647 -0.001176 0.001221
-0.006584 -0.003746 -0.001271
-0.003276 -0.007464 0.001321
0.001777 -0.001480 -0.002526
0.002144 -0.000357 0.000186
-0.000148 -0.000954 0.000367
-0.000459 0.000806 -0.000500
0.001395 0.000704 -0.000433
0.010303 -0.004541 -0.002717
0.000778 -0.001548 -0.004286
-0.000501 0.004777 0.004015
-0.005027 -0.000611 -0.001894
0.011229 0.001861 -0.005669
